c nombre: 24
c densidad: 0.3
p edges 30 142
e 1 3
e 1 9
e 1 12
e 1 13
e 1 15
e 1 18
e 1 23
e 1 24
e 1 27
e 2 7
e 2 8
e 2 10
e 2 17
e 2 19
e 2 21
e 2 26
e 2 30
e 3 11
e 3 12
e 3 13
e 3 14
e 3 15
e 3 25
e 3 29
e 4 6
e 4 7
e 4 8
e 4 15
e 4 24
e 4 25
e 4 26
e 4 27
e 4 28
e 4 30
e 5 7
e 5 8
e 5 11
e 5 12
e 5 14
e 5 21
e 5 22
e 5 23
e 5 28
e 5 29
e 5 30
e 6 8
e 6 9
e 6 13
e 6 14
e 6 16
e 6 19
e 6 23
e 7 8
e 7 10
e 7 12
e 7 21
e 7 24
e 7 30
e 8 12
e 8 15
e 8 20
e 8 21
e 8 22
e 8 27
e 9 13
e 9 14
e 9 15
e 9 19
e 9 21
e 9 22
e 10 17
e 10 19
e 10 23
e 10 27
e 10 28
e 10 30
e 11 16
e 11 17
e 11 21
e 11 27
e 11 28
e 11 29
e 11 30
e 12 13
e 12 18
e 12 20
e 12 21
e 12 22
e 12 27
e 12 30
e 13 18
e 13 20
e 13 28
e 14 15
e 14 18
e 14 19
e 14 23
e 14 27
e 14 29
e 15 16
e 15 18
e 15 20
e 15 28
e 16 17
e 16 18
e 16 21
e 16 23
e 16 29
e 16 30
e 17 22
e 17 23
e 17 27
e 18 19
e 18 21
e 18 26
e 18 28
e 19 20
e 19 21
e 19 24
e 19 25
e 19 27
e 20 22
e 20 23
e 20 24
e 20 28
e 20 30
e 21 24
e 21 27
e 21 29
e 22 24
e 23 24
e 23 25
e 23 29
e 24 25
e 24 30
e 25 26
e 25 27
e 25 29
e 26 28
e 26 29
e 27 29
e 28 29
